  2   0   0   0   0   0   0   0   0   0   0   0   0   0   0   0   0   0   0   0   0   0   0   0   0   0   0   0   0   0   0   0   0   0   0   0   0   0   0   0   0   0   0   0   0   0   0   0   0   0   0   0   0   0   0   0   0   0   0   0   0   0   0   0   0   0   0   0   0   0   0   0   0   0   0   0   0   0   0   0   0   0   0   0   0   0   0   0   0   0   0   0   0   0   0   0   0   0   0   0   0   0   0   0   0   0   0   0   0   0   0   0   0   0   0   0   0   0   0   0   0   0   0   0   0   0   0   0   0   0   0   0   0   0   0   0   0   0   0   0   0   0   0   0   0   0   0   0   0   0   0   0   0   0   0   0   0   0   0   0   0   0   0   0   0   0   0   0   0   0   0   0   0   0   0   0   0   0   0   0   0   0   0   0   0   0   0   0   0   0   0   0   0   0   0   0   0   0   0   0   0   0   0   0   0   0   0   0   0   0   0   0   0   0   0   0   0   0   0   0   0   0   0   0   0   0   0   0   0   0   0   0   0   0   0   0   0   0   0   0   0   0   0   0   0   0   0   0   0   0   0   0   0   0   0   0   0   0   0   0   0   0   0   0   0   0   0   0   0   0   0   0   0   0   0   0   0   0   0   0   0   0   0   0   0   0   0   0   0   0   0   0   0   0   0   0   0   0   0   0   0   0   0   0   0   0   0   0   0   0   0   0   0   0   0   0   0   0   0   0   0   0   0   0   0   0   0   0   0   0   0   0   0   0   0   0   0   0   0   0   0   0   0   0   0   0   0   0   0   0   0   0   0   0   0   0   0   0   0   0   0   0   0   0   0   0   0   0   0   0   0   0   0   0   0   0   0   0   0   0   0   0   0   0   0   0   0   0   0   0   0   0   0   0   0   0   0   0   0   0   0   0   0   0   0   0   0   0   0   0   0   0   0   0   0   0   0   0   0   0   0   0   0   0   0   0   0   0   0   0   0   0   0   0   0   0   0   0   0   0   0   0   0   0   0   0   0   0   0   0   0   0   0   0   0   0   0   0   0   0   0   0   0   0   0   0   0   0   0   0   0   0   0   0   0   0   0   0   0   0   0   0   0   0   0   0   0   0   0   0   0   0   0   0   0   0   0   0   0   0   0   0   0   0   0   0   0   0   0   0   0   0   0   0   0   0   0   0   0   0   0   0   0   0   0   0   0   0   0   0   0   0   0   0   0   0   0   0   0   0   0   0   0   0   0   0   0   0   0   0   0   0   0   0   0   0   0   0   0   0   0   0   0   0   0   0   0   0   0   0   0   0   0   0   0   0   0   0   0   0   0   0   0   0   0   0   0   0   0   0   0   0   0   0   0   0   0   0   0   0   0   0   0   0   0   0   0   0   0   0   0   0   0   0   0   0   0   0   0   0   0   0   0   0   0   0   0   0   0   0   0   0   0   0   0   0   0   0   0   0   0   0   0   0   0   0   0   0   0   0   0   0   0   0   0   0   0   0   0   0   0   0   0   0   0   0   0   0   0   0   0   0   0   0   0   0   0   0   0   0   0   0   0   0   0   0   0   0   0   0   0   0   0   0   0   0   0   0   0   0   0   0   0   0   0   0   0   0   0   0   0   0   0   0   0   0   0   0   0   0   0   0   0   0   0   0   0   0   0   0   0   0   0   0   0   0   0   0   0   0   0   0   0   0   0   0   0   0   0   0   0   0   0   0   0   0   0   0   0   0   0   0   0   0   0   0   0   0   0   0   0   0   0   0   0   0   0   0   0   0   0   0   0   0   0   0   0   0   0   0   0   0   0   0   0   0   0   0   0   0   0   0   0   0   0   0   0   0   0   0   0   0   0   0   0   0   0   0   0   0   0   0   0   0   0   0   0   0   0   0   0   0   0   0   0   0   0   0   0   0   0   0   0   0   0   0   0   0   0   0   0   0   0   0   0   0   0   0   0   0   0   0   0   0   0   0   0   0   0   0   0   0   0   0   0   0   0   0   0   0   0   0   0   0   0   0   0   0   0   0   0   0   0   0   0   0   0   0   0   0   0   0   0   0   0   0   0   0   0   0   0   0   0   0   0   0   0   0   0   0   0   0   0   0   0   0   0   0   0   0   0   0   0   0   0   0   0   0   0   0   0   0   0   0   0   0   0   0   0   0   0   0   0   0   0   0   0   0   0   0   0   0   0   0   0   0   0   0   0   0   0   0   0   0   0   0   0   0   0   0   0   0   0   0   0   0   0   0   0   0   0   0   0   0   0   0   0   0   0   0 
REMAINING SPACE:      80
ACCUMULATED PRIORITY: 200
EXECUTION TIME:       1.000670700
QTY PRI VAL
[2] 100 210
[0]  95 200
[0]  89 200
[0]  97 218
[0]  99 223
[0] 100 226
[0] 100 226
[0]  91 208
[0]  98 225
[0] 100 230
[0]  95 219
[0]  94 217
[0]  92 217
[0]  89 211
[0]  94 224
[0]  84 201
[0]  99 238
[0]  99 240
[0]  87 211
[0]  88 214
[0]  88 215
[0]  88 215
[0]  92 225
[0]  93 229
[0]  96 237
[0]  82 206
[0]  98 247
[0]  79 201
[0]  95 242
[0]  98 250
[0]  92 236
[0]  84 216
[0]  94 242
[0]  79 204
[0]  89 230
[0]  82 214
[0]  94 246
[0]  94 247
[0]  98 258
[0]  87 230
[0]  90 238
[0]  89 237
[0]  92 245
[0]  96 257
[0]  75 201
[0]  90 242
[0]  98 264
[0]  79 213
[0]  80 216
[0]  97 263
[0]  85 231
[0]  73 200
[0]  88 242
[0]  80 221
[0]  73 202
[0]  83 230
[0]  76 212
[0]  90 253
[0]  83 234
[0]  90 255
[0]  86 244
[0]  99 281
[0]  75 214
[0]  89 254
[0]  85 244
[0]  82 237
[0]  85 246
[0]  78 226
[0]  92 267
[0]  85 248
[0]  87 254
[0]  91 267
[0]  87 256
[0]  88 259
[0]  89 264
[0]  98 291
[0]  78 232
[0]  99 296
[0]  98 294
[0] 100 301
[0]  84 253
[0]  82 247
[0]  75 227
[0]  74 225
[0]  98 299
[0]  69 211
[0]  88 270
[0]  84 258
[0]  81 249
[0]  93 286
[0]  87 269
[0]  95 294
[0]  71 220
[0]  96 299
[0]  76 237
[0]  84 262
[0]  92 287
[0]  83 259
[0]  74 233
[0]  99 313
[0]  71 225
[0]  80 254
[0]  96 305
[0]  95 302
[0]  97 309
[0]  91 290
[0]  76 243
[0]  85 272
[0]  73 234
[0]  63 202
[0]  70 225
[0]  87 280
[0]  77 248
[0]  85 275
[0]  94 306
[0]  70 228
[0]  65 212
[0]  92 301
[0]  74 243
[0]  73 240
[0]  85 280
[0]  62 206
[0]  88 294
[0]  92 308
[0]  64 216
[0]  59 200
[0]  61 207
[0]  80 272
[0]  59 201
[0]  87 297
[0]  87 297
[0]  97 333
[0]  67 231
[0]  68 235
[0] 100 347
[0]  95 330
[0]  94 327
[0] 100 348
[0]  74 258
[0]  78 272
[0]  73 255
[0]  95 333
[0]  92 323
[0]  86 302
[0]  57 201
[0]  68 240
[0]  81 286
[0]  79 279
[0]  60 212
[0]  63 223
[0]  66 234
[0]  75 266
[0]  91 323
[0]  67 238
[0]  94 334
[0]  72 257
[0]  84 301
[0]  84 301
[0]  58 208
[0]  59 212
[0]  98 353
[0]  63 227
[0]  99 357
[0]  85 309
[0]  80 291
[0]  84 306
[0]  93 339
[0]  68 249
[0]  84 309
[0]  84 309
[0]  75 276
[0]  97 357
[0]  77 284
[0]  88 325
[0]  62 229
[0]  73 270
[0]  89 330
[0]  76 282
[0]  98 364
[0]  76 283
[0]  88 328
[0]  67 250
[0]  88 329
[0]  86 322
[0]  99 371
[0]  88 330
[0]  56 210
[0]  85 319
[0]  69 259
[0]  78 294
[0]  94 356
[0]  85 322
[0]  97 368
[0]  79 301
[0]  59 225
[0]  65 248
[0]  62 239
[0]  76 293
[0]  73 282
[0]  99 383
[0]  69 267
[0]  92 356
[0]  71 275
[0]  53 206
[0]  82 319
[0]  94 366
[0]  80 312
[0]  79 309
[0]  59 231
[0]  51 200
[0]  68 268
[0]  79 312
[0]  81 320
[0]  65 257
[0]  94 372
[0]  76 301
[0]  82 325
[0]  59 234
[0]  76 302
[0] 100 398
[0]  55 219
[0]  58 231
[0]  74 295
[0]  71 284
[0]  97 389
[0]  72 289
[0]  69 277
[0]  53 213
[0]  50 201
[0]  83 335
[0]  91 369
[0]  64 261
[0]  62 253
[0]  77 315
[0]  63 259
[0]  85 351
[0]  61 253
[0]  76 316
[0]  86 359
[0]  94 393
[0]  66 276
[0]  74 311
[0]  96 404
[0]  86 362
[0]  57 240
[0]  58 245
[0]  70 296
[0]  96 408
[0]  91 387
[0]  94 400
[0]  58 247
[0]  98 418
[0]  76 326
[0]  63 271
[0]  53 228
[0]  71 306
[0]  85 367
[0]  88 380
[0]  87 376
[0]  92 398
[0]  67 291
[0]  67 292
[0]  72 314
[0]  91 397
[0]  96 419
[0]  74 323
[0]  71 310
[0]  49 214
[0]  65 284
[0]  59 258
[0]  73 320
[0]  85 373
[0]  54 237
[0]  56 246
[0]  86 378
[0]  87 383
[0]  76 336
[0]  73 323
[0]  94 416
[0]  93 413
[0]  94 418
[0]  61 272
[0]  50 223
[0]  63 281
[0]  98 438
[0]  61 273
[0]  90 403
[0]  80 360
[0]  74 333
[0] 100 450
[0]  61 275
[0]  95 429
[0]  89 402
[0]  93 421
[0]  65 295
[0]  85 386
[0]  82 374
[0]  73 333
[0]  46 210
[0]  53 242
[0]  53 242
[0]  66 302
[0]  67 307
[0]  48 220
[0]  62 285
[0]  82 377
[0]  70 323
[0]  51 236
[0]  73 338
[0]  77 357
[0]  99 459
[0]  95 441
[0]  57 265
[0]  80 372
[0]  63 293
[0]  67 312
[0]  69 322
[0]  80 374
[0]  77 360
[0]  94 440
[0]  60 281
[0]  88 414
[0]  78 367
[0]  51 240
[0]  84 396
[0]  86 407
[0]  72 341
[0]  80 379
[0]  54 256
[0]  88 418
[0]  74 352
[0]  66 315
[0]  88 420
[0]  62 296
[0]  91 436
[0]  99 476
[0]  66 318
[0]  72 347
[0]  77 372
[0]  89 430
[0]  43 208
[0]  80 387
[0]  56 272
[0]  78 379
[0]  83 404
[0]  91 444
[0]  91 446
[0]  94 461
[0]  64 314
[0]  87 428
[0]  66 325
[0]  82 404
[0]  70 345
[0]  87 429
[0]  90 445
[0]  88 436
[0]  88 437
[0]  70 348
[0]  45 224
[0]  80 399
[0]  81 404
[0]  92 459
[0]  42 211
[0]  62 312
[0]  81 408
[0]  93 469
[0]  89 449
[0]  66 334
[0]  81 410
[0]  59 300
[0]  47 239
[0]  74 377
[0]  94 479
[0]  72 367
[0]  89 454
[0]  56 286
[0]  93 475
[0]  60 307
[0]  58 297
[0]  65 333
[0]  62 318
[0]  96 493
[0]  42 216
[0]  74 381
[0]  79 407
[0]  85 438
[0]  78 404
[0]  92 478
[0]  94 490
[0]  91 475
[0]  63 329
[0]  81 425
[0]  93 488
[0]  67 352
[0]  82 431
[0]  89 468
[0]  54 284
[0]  77 406
[0]  40 212
[0]  52 276
[0]  73 388
[0]  76 404
[0]  80 426
[0]  43 229
[0]  47 251
[0]  69 369
[0]  84 450
[0]  83 445
[0]  58 311
[0]  63 338
[0]  61 328
[0]  65 350
[0]  69 373
[0]  61 330
[0]  39 211
[0]  39 211
[0]  51 276
[0]  83 450
[0]  89 483
[0]  65 354
[0]  67 365
[0]  80 436
[0]  62 338
[0]  70 382
[0]  89 486
[0]  78 426
[0]  58 317
[0]  80 439
[0]  67 368
[0]  90 495
[0]  39 217
[0]  87 486
[0]  74 414
[0]  82 460
[0]  70 393
[0]  65 365
[0]  86 483
[0]  37 208
[0]  73 412
[0]  51 289
[0]  54 306
[0]  80 455
[0]  77 438
[0]  56 319
[0]  50 285
[0]  55 315
[0]  60 346
[0]  76 440
[0]  86 499
[0]  53 308
[0]  62 361
[0]  74 431
[0]  69 402
[0]  71 414
[0]  56 327
[0]  84 491
[0]  66 386
[0]  80 468
[0]  75 439
[0]  56 328
[0]  72 422
[0]  67 393
[0]  50 294
[0]  75 443
[0]  76 449
[0]  34 201
[0]  81 479
[0]  71 420
[0]  74 438
[0]  57 338
[0]  62 368
[0]  65 387
[0]  49 292
[0]  50 298
[0]  82 489
[0]  76 455
[0]  44 266
[0]  65 394
[0]  63 382
[0]  57 346
[0]  63 383
[0]  36 219
[0]  72 438
[0]  58 353
[0]  69 420
[0]  33 201
[0]  75 458
[0]  51 312
[0]  51 313
[0]  81 498
[0]  81 498
[0]  71 437
[0]  57 352
[0]  58 359
[0]  55 341
[0]  38 236
[0]  45 280
[0]  51 318
[0]  40 250
[0]  79 494
[0]  59 372
[0]  75 473
[0]  73 461
[0]  32 203
[0]  65 413
[0]  68 433
[0]  36 231
[0]  56 360
[0]  71 457
[0]  48 311
[0]  42 273
[0]  66 429
[0]  72 468
[0]  44 287
[0]  36 235
[0]  32 210
[0]  61 401
[0]  54 355
[0]  52 342
[0]  55 362
[0]  36 237
[0]  69 456
[0]  36 238
[0]  59 392
[0]  40 266
[0]  66 442
[0]  32 215
[0]  47 317
[0]  41 277
[0]  68 460
[0]  44 298
[0]  70 475
[0]  58 396
[0]  68 466
[0]  30 206
[0]  63 434
[0]  56 387
[0]  39 270
[0]  39 271
[0]  63 438
[0]  29 202
[0]  60 419
[0]  55 385
[0]  69 484
[0]  54 379
[0]  66 465
[0]  30 212
[0]  63 446
[0]  50 355
[0]  29 206
[0]  61 434
[0]  50 357
[0]  69 493
[0]  47 336
[0]  46 329
[0]  54 388
[0]  37 266
[0]  51 367
[0]  64 461
[0]  48 346
[0]  51 368
[0]  31 224
[0]  34 246
[0]  66 478
[0]  60 436
[0]  55 400
[0]  43 313
[0]  44 321
[0]  68 498
[0]  50 367
[0]  62 457
[0]  39 288
[0]  46 340
[0]  65 483
[0]  37 275
[0]  27 201
[0]  57 425
[0]  55 411
[0]  60 450
[0]  49 369
[0]  65 490
[0]  39 296
[0]  31 236
[0]  35 267
[0]  60 458
[0]  59 451
[0]  61 467
[0]  64 491
[0]  37 285
[0]  62 479
[0]  52 402
[0]  51 395
[0]  32 248
[0]  53 412
[0]  49 381
[0]  49 382
[0]  56 437
[0]  52 406
[0]  59 461
[0]  48 376
[0]  36 282
[0]  60 472
[0]  38 299
[0]  38 301
[0]  55 436
[0]  57 454
[0]  62 496
[0]  55 440
[0]  44 354
[0]  51 411
[0]  43 347
[0]  41 331
[0]  49 396
[0]  30 243
[0]  58 471
[0]  46 375
[0]  55 449
[0]  57 467
[0]  59 485
[0]  42 346
[0]  54 445
[0]  48 396
[0]  53 438
[0]  29 240
[0]  25 208
[0]  55 458
[0]  51 425
[0]  30 250
[0]  60 500
[0]  46 386
[0]  25 210
[0]  30 252
[0]  55 463
[0]  47 396
[0]  27 228
[0]  55 465
[0]  44 373
[0]  56 475
[0]  57 487
[0]  49 419
[0]  44 378
[0]  44 379
[0]  53 460
[0]  57 495
[0]  26 226
[0]  52 452
[0]  23 200
[0]  44 383
[0]  49 427
[0]  57 497
[0]  50 437
[0]  57 499
[0]  41 359
[0]  50 438
[0]  48 421
[0]  35 309
[0]  48 424
[0]  40 354
[0]  54 481
[0]  45 401
[0]  37 330
[0]  53 473
[0]  49 438
[0]  37 333
[0]  43 391
[0]  54 493
[0]  34 311
[0]  34 311
[0]  29 266
[0]  48 442
[0]  37 341
[0]  43 398
[0]  34 316
[0]  40 372
[0]  48 447
[0]  41 384
[0]  35 328
[0]  48 452
[0]  52 490
[0]  47 443
[0]  45 425
[0]  44 416
[0]  44 418
[0]  49 467
[0]  51 487
[0]  36 344
[0]  40 385
[0]  31 299
[0]  48 463
[0]  27 261
[0]  27 262
[0]  45 437
[0]  27 263
[0]  37 361
[0]  41 401
[0]  26 256
[0]  23 227
[0]  35 346
[0]  23 228
[0]  46 456
[0]  25 248
[0]  38 377
[0]  49 489
[0]  30 301
[0]  27 271
[0]  27 271
[0]  38 382
[0]  49 494
[0]  26 263
[0]  25 253
[0]  41 415
[0]  31 314
[0]  32 325
[0]  34 347
[0]  34 348
[0]  46 475
[0]  27 279
[0]  42 434
[0]  26 269
[0]  20 207
[0]  30 312
[0]  32 333
[0]  30 313
[0]  28 293
[0]  24 252
[0]  45 474
[0]  22 232
[0]  41 433
[0]  44 466
[0]  47 500
[0]  39 415
[0]  22 235
[0]  41 438
[0]  31 335
[0]  31 336
[0]  45 489
[0]  41 446
[0]  44 483
[0]  45 494
[0]  45 496
[0]  33 365
[0]  42 465
[0]  42 467
[0]  40 447
[0]  33 369
[0]  35 393
[0]  42 472
[0]  44 497
[0]  20 226
[0]  35 397
[0]  43 489
[0]  20 229
[0]  39 447
[0]  36 413
[0]  34 391
[0]  33 380
[0]  31 359
[0]  28 326
[0]  36 426
[0]  37 443
[0]  35 421
[0]  21 253
[0]  25 302
[0]  23 278
[0]  32 387
[0]  41 500
[0]  28 343
[0]  36 443
[0]  26 320
[0]  37 456
[0]  17 212
[0]  19 237
[0]  40 499
[0]  23 287
[0]  34 425
[0]  37 463
[0]  36 451
[0]  30 378
[0]  24 303
[0]  24 307
[0]  39 499
[0]  36 461
[0]  37 474
[0]  36 462
[0]  30 386
[0]  31 403
[0]  23 299
[0]  23 301
[0]  21 275
[0]  30 394
[0]  34 448
[0]  32 422
[0]  34 449
[0]  26 344
[0]  32 425
[0]  16 214
[0]  17 228
[0]  28 376
[0]  26 351
[0]  19 257
[0]  36 489
[0]  29 396
[0]  31 424
[0]  35 480
[0]  36 495
[0]  29 401
[0]  35 484
[0]  26 360
[0]  28 388
[0]  28 388
[0]  33 458
[0]  17 237
[0]  30 419
[0]  31 433
[0]  27 382
[0]  26 368
[0]  33 468
[0]  31 440
[0]  22 313
[0]  35 498
[0]  29 413
[0]  23 328
[0]  30 432
[0]  21 305
[0]  21 306
[0]  32 467
[0]  33 484
[0]  34 500
[0]  24 354
[0]  26 384
[0]  33 488
[0]  27 400
[0]  24 358
[0]  17 254
[0]  32 479
[0]  19 285
[0]  21 317
[0]  29 438
[0]  18 273
[0]  24 367
[0]  24 369
[0]  32 493
[0]  32 497
[0]  24 378
[0]  20 316
[0]  20 317
[0]  18 287
[0]  19 303
[0]  28 448
[0]  29 466
[0]  21 341
[0]  25 410
[0]  30 493
[0]  17 280
[0]  18 297
[0]  16 264
[0]  18 297
[0]  22 364
[0]  14 232
[0]  30 498
[0]  17 284
[0]  22 369
[0]  17 286
[0]  23 390
[0]  22 377
[0]  20 349
[0]  26 457
[0]  22 387
[0]  22 390
[0]  28 497
[0]  18 320
[0]  26 465
[0]  25 449
[0]  22 398
[0]  11 200
[0]  23 420
[0]  21 388
[0]  27 499
[0]  16 297
[0]  23 427
[0]  11 205
[0]  14 261
[0]  26 487
[0]  16 302
[0]  26 492
[0]  22 417
[0]  26 493
[0]  24 456
[0]  21 399
[0]  13 248
[0]  19 374
[0]  17 338
[0]  19 379
[0]  21 419
[0]  17 341
[0]  24 484
[0]  12 245
[0]  18 369
[0]  11 226
[0]  11 226
[0]  21 432
[0]  18 371
[0]  17 352
[0]  15 311
[0]  23 480
[0]  13 272
[0]  13 277
[0]  10 214
[0]  11 237
[0]  17 368
[0]  18 395
[0]  19 418
[0]  12 264
[0]  21 471
[0]  12 271
[0]  21 480
[0]  17 391
[0]  19 441
[0]  21 489
[0]  20 467
[0]  11 259
[0]  16 377
[0]  11 261
[0]  18 428
[0]  14 334
[0]  16 384
[0]  10 241
[0]  20 484
[0]  17 412
[0]  18 442
[0]  19 470
[0]  15 374
[0]  15 376
[0]  14 352
[0]  19 478
[0]  11 278
[0]  17 432
[0]  16 408
[0]  17 435
[0]  17 438
[0]  18 464
[0]  14 363
[0]  18 469
[0]  10 261
[0]  17 445
[0]  11 288
[0]  12 315
[0]  10 265
[0]  18 478
[0]  18 478
[0]  18 482
[0]  13 350
[0]  17 459
[0]  11 300
[0]  14 383
[0]  13 357
[0]  12 337
[0]  15 423
[0]  13 367
[0]  16 454
[0]  14 398
[0]  17 490
[0]  13 385
[0]  12 359
[0]  10 300
[0]  10 302
[0]  15 454
[0]  16 486
[0]  12 373
[0]  12 373
[0]  10 311
[0]  15 469
[0]  12 381
[0]  10 319
[0]  14 452
[0]  12 392
[0]  14 462
[0]  15 495
[0]  15 498
[0]  14 466
[0]  13 440
[0]  14 486
[0]  13 455
[0]  12 423
[0]  11 390
[0]  11 393
[0]  11 414
[0]  10 383
[0]  11 435
[0]  11 438
[0]  10 402
[0]  11 453
[0]  11 460
[0]  11 463
[0]  11 470
[0]  10 436
[0]  11 482
[0]  10 466
[0]  10 475
[0]  10 488
